c DCNF-Autarky [version 0.0.1]. 
c Copyright (c) 2018-2019 Swansea University. 
c 
c Input QBF/DQBF path: Basler/wmiforward/stmt17_18_19.qdimacs
c Output SAT Translation Path: /tmp/stmt17_18_19.qdimacs-dcnfAutarky.dimacs
c Input Clause Count (tautology free): 623
c
c Performing E1-Autarky iteration.
c Remaining clauses count after E-Reduction: 622
c
c Performing A1-Autarky iteration.
c Running Lingeling ... 
c
c Remaining clauses count after A-Reduction: 622
c
c Input Parameter (command line, file): 
c input filename   Basler/wmiforward/stmt17_18_19.qdimacs
c output filename  /tmp/stmt17_18_19.qdimacs-dcnfAutarky.dimacs
c autarky level    1
c conformity level 0
c encoding type    2
c no.of var        194
c no.of clauses    623
c no.of taut cls   0
c 
c Output Parameters: 
c remaining no.of clauses  622
c
c filename pn pc autarky ntaut rpa rpe rpcdiff result
c "Basler/wmiforward/stmt17_18_19.qdimacs" 194 623 "E1+A1" 0 33 160 1 "RED" 
p cnf 194 622
a 2 3 7 9 13 14 15 16 20 24 26 30 32 37 38 39 43 47 49 53 55 60 61 62 66 70 72 76 78 83 84 85 87 0
e 1 4 5 6 8 10 11 12 17 18 19 21 22 23 25 27 28 29 31 33 34 35 36 40 41 42 44 45 46 48 50 51 52 54 56 57 58 59 63 64 65 67 68 69 71 73 74 75 77 79 80 81 82 86 88 89 90 91 92 93 94 95 96 97 98 99 100 101 102 103 104 105 106 107 108 109 110 111 112 113 114 115 116 117 118 119 120 121 122 123 124 125 126 127 128 129 130 131 132 133 134 135 136 137 138 139 140 141 142 143 144 145 146 147 148 149 150 151 152 153 154 155 156 157 158 159 160 161 162 163 164 165 166 167 168 169 170 171 172 173 174 175 176 177 178 179 180 181 182 183 184 185 186 187 188 189 190 191 192 193 194 0
2 -4 0
3 -4 0
-2 -3 4 0
2 -5 0
-3 -5 0
-2 3 5 0
2 6 0
-4 6 0
-5 6 0
-2 4 5 -6 0
-7 8 0
7 8 0
8 -10 0
9 -10 0
-8 -9 10 0
8 -11 0
-9 -11 0
-8 9 11 0
-10 12 0
-11 12 0
10 11 -12 0
15 -17 0
16 -17 0
-15 -16 17 0
15 -18 0
-16 -18 0
-15 16 18 0
-17 19 0
-18 19 0
17 18 -19 0
19 -21 0
20 -21 0
-19 -20 21 0
19 -22 0
-20 -22 0
-19 20 22 0
-21 23 0
-22 23 0
21 22 -23 0
23 -25 0
-24 -25 0
-23 24 25 0
23 -27 0
24 -27 0
26 -27 0
-23 -24 -26 27 0
23 -28 0
24 -28 0
-26 -28 0
-23 -24 26 28 0
15 29 0
-25 29 0
-27 29 0
-28 29 0
-15 25 27 28 -29 0
13 -31 0
14 -31 0
29 -31 0
30 -31 0
-13 -14 -29 -30 31 0
13 -33 0
-14 -33 0
32 -33 0
-13 14 -32 33 0
13 -34 0
14 -34 0
29 -34 0
-30 -34 0
-13 -14 -29 30 34 0
13 -35 0
-14 -35 0
-32 -35 0
-13 14 32 35 0
-34 36 0
-35 36 0
34 35 -36 0
38 -40 0
39 -40 0
-38 -39 40 0
38 -41 0
-39 -41 0
-38 39 41 0
-40 42 0
-41 42 0
40 41 -42 0
42 -44 0
43 -44 0
-42 -43 44 0
42 -45 0
-43 -45 0
-42 43 45 0
-44 46 0
-45 46 0
44 45 -46 0
46 -48 0
-47 -48 0
-46 47 48 0
46 -50 0
47 -50 0
49 -50 0
-46 -47 -49 50 0
46 -51 0
47 -51 0
-49 -51 0
-46 -47 49 51 0
38 52 0
-48 52 0
-50 52 0
-51 52 0
-38 48 50 51 -52 0
36 -54 0
37 -54 0
52 -54 0
53 -54 0
-36 -37 -52 -53 54 0
36 -56 0
-37 -56 0
55 -56 0
-36 37 -55 56 0
36 -57 0
37 -57 0
52 -57 0
-53 -57 0
-36 -37 -52 53 57 0
36 -58 0
-37 -58 0
-55 -58 0
-36 37 55 58 0
-57 59 0
-58 59 0
57 58 -59 0
61 -63 0
62 -63 0
-61 -62 63 0
61 -64 0
-62 -64 0
-61 62 64 0
-63 65 0
-64 65 0
63 64 -65 0
65 -67 0
66 -67 0
-65 -66 67 0
65 -68 0
-66 -68 0
-65 66 68 0
-67 69 0
-68 69 0
67 68 -69 0
69 -71 0
-70 -71 0
-69 70 71 0
69 -73 0
70 -73 0
72 -73 0
-69 -70 -72 73 0
69 -74 0
70 -74 0
-72 -74 0
-69 -70 72 74 0
61 75 0
-71 75 0
-73 75 0
-74 75 0
-61 71 73 74 -75 0
59 -77 0
60 -77 0
75 -77 0
76 -77 0
-59 -60 -75 -76 77 0
59 -79 0
-60 -79 0
78 -79 0
-59 60 -78 79 0
59 -80 0
60 -80 0
75 -80 0
-76 -80 0
-59 -60 -75 76 80 0
59 -81 0
-60 -81 0
-78 -81 0
-59 60 78 81 0
-80 82 0
-81 82 0
80 81 -82 0
82 -86 0
83 -86 0
-84 -86 0
85 -86 0
-82 -83 84 -85 86 0
82 -88 0
-83 -88 0
87 -88 0
-82 83 -87 88 0
82 -89 0
-83 -89 0
-87 -89 0
-82 83 87 89 0
82 -90 0
83 -90 0
-84 -90 0
-85 -90 0
-82 -83 84 85 90 0
82 -91 0
83 -91 0
84 -91 0
-82 -83 -84 91 0
-31 92 0
-33 92 0
-54 92 0
-56 92 0
-77 92 0
-79 92 0
-86 92 0
-88 92 0
-89 92 0
-90 92 0
-91 92 0
31 33 54 56 77 79 86 88 89 90 91 -92 0
6 -93 0
12 -93 0
92 -93 0
-6 -12 -92 93 0
8 -94 0
9 -94 0
-8 -9 94 0
8 -95 0
-9 -95 0
-8 9 95 0
-94 96 0
-95 96 0
94 95 -96 0
96 -97 0
13 -97 0
-14 -97 0
32 -97 0
-96 -13 14 -32 97 0
96 -98 0
13 -98 0
-14 -98 0
-32 -98 0
-96 -13 14 32 98 0
96 -99 0
-15 -99 0
-96 15 99 0
96 -100 0
23 -100 0
-24 -100 0
-96 -23 24 100 0
-27 101 0
-28 101 0
27 28 -101 0
96 -102 0
101 -102 0
-96 -101 102 0
-99 103 0
-100 103 0
-102 103 0
99 100 102 -103 0
103 -104 0
13 -104 0
14 -104 0
29 -104 0
-30 -104 0
-103 -13 -14 -29 30 104 0
-98 105 0
-104 105 0
98 104 -105 0
105 -106 0
36 -106 0
-37 -106 0
55 -106 0
-105 -36 37 -55 106 0
105 -107 0
-38 -107 0
-105 38 107 0
105 -108 0
46 -108 0
-47 -108 0
-105 -46 47 108 0
-50 109 0
-51 109 0
50 51 -109 0
105 -110 0
109 -110 0
-105 -109 110 0
-107 111 0
-108 111 0
-110 111 0
107 108 110 -111 0
111 -112 0
36 -112 0
37 -112 0
52 -112 0
53 -112 0
-111 -36 -37 -52 -53 112 0
105 -113 0
36 -113 0
-37 -113 0
-55 -113 0
-105 -36 37 55 113 0
111 -114 0
36 -114 0
37 -114 0
52 -114 0
-53 -114 0
-111 -36 -37 -52 53 114 0
-113 115 0
-114 115 0
113 114 -115 0
115 -116 0
59 -116 0
-60 -116 0
78 -116 0
-115 -59 60 -78 116 0
115 -117 0
-61 -117 0
-115 61 117 0
115 -118 0
69 -118 0
-70 -118 0
-115 -69 70 118 0
-73 119 0
-74 119 0
73 74 -119 0
115 -120 0
119 -120 0
-115 -119 120 0
-117 121 0
-118 121 0
-120 121 0
117 118 120 -121 0
121 -122 0
59 -122 0
60 -122 0
75 -122 0
76 -122 0
-121 -59 -60 -75 -76 122 0
115 -123 0
59 -123 0
-60 -123 0
-78 -123 0
-115 -59 60 78 123 0
121 -124 0
59 -124 0
60 -124 0
75 -124 0
-76 -124 0
-121 -59 -60 -75 76 124 0
-123 125 0
-124 125 0
123 124 -125 0
-86 126 0
-88 126 0
86 88 -126 0
125 -127 0
126 -127 0
-125 -126 127 0
125 -128 0
82 -128 0
83 -128 0
-84 -128 0
-85 -128 0
-125 -82 -83 84 85 128 0
125 -129 0
82 -129 0
83 -129 0
84 -129 0
-125 -82 -83 -84 129 0
125 -130 0
82 -130 0
-83 -130 0
-87 -130 0
-125 -82 83 87 130 0
-127 131 0
-128 131 0
-129 131 0
-130 131 0
127 128 129 130 -131 0
-86 132 0
-88 132 0
-89 132 0
-90 132 0
-91 132 0
86 88 89 90 91 -132 0
131 -133 0
132 -133 0
-131 -132 133 0
103 -134 0
13 -134 0
14 -134 0
29 -134 0
30 -134 0
-103 -13 -14 -29 -30 134 0
-97 135 0
-106 135 0
-112 135 0
-116 135 0
-122 135 0
-133 135 0
-134 135 0
97 106 112 116 122 133 134 -135 0
8 -136 0
9 -136 0
-8 -9 136 0
8 -137 0
-9 -137 0
-8 9 137 0
-136 138 0
-137 138 0
136 137 -138 0
138 -139 0
13 -139 0
-14 -139 0
32 -139 0
-138 -13 14 -32 139 0
138 -140 0
13 -140 0
-14 -140 0
-32 -140 0
-138 -13 14 32 140 0
138 -141 0
-15 -141 0
-138 15 141 0
138 -142 0
23 -142 0
-24 -142 0
-138 -23 24 142 0
138 -143 0
101 -143 0
-138 -101 143 0
-141 144 0
-142 144 0
-143 144 0
141 142 143 -144 0
144 -145 0
13 -145 0
14 -145 0
29 -145 0
-30 -145 0
-144 -13 -14 -29 30 145 0
-140 146 0
-145 146 0
140 145 -146 0
146 -147 0
36 -147 0
-37 -147 0
55 -147 0
-146 -36 37 -55 147 0
146 -148 0
-38 -148 0
-146 38 148 0
146 -149 0
46 -149 0
-47 -149 0
-146 -46 47 149 0
146 -150 0
109 -150 0
-146 -109 150 0
-148 151 0
-149 151 0
-150 151 0
148 149 150 -151 0
151 -152 0
36 -152 0
37 -152 0
52 -152 0
53 -152 0
-151 -36 -37 -52 -53 152 0
146 -153 0
36 -153 0
-37 -153 0
-55 -153 0
-146 -36 37 55 153 0
151 -154 0
36 -154 0
37 -154 0
52 -154 0
-53 -154 0
-151 -36 -37 -52 53 154 0
-153 155 0
-154 155 0
153 154 -155 0
155 -156 0
59 -156 0
-60 -156 0
78 -156 0
-155 -59 60 -78 156 0
155 -157 0
-61 -157 0
-155 61 157 0
155 -158 0
69 -158 0
-70 -158 0
-155 -69 70 158 0
155 -159 0
119 -159 0
-155 -119 159 0
-157 160 0
-158 160 0
-159 160 0
157 158 159 -160 0
160 -161 0
59 -161 0
60 -161 0
75 -161 0
76 -161 0
-160 -59 -60 -75 -76 161 0
155 -162 0
59 -162 0
-60 -162 0
-78 -162 0
-155 -59 60 78 162 0
160 -163 0
59 -163 0
60 -163 0
75 -163 0
-76 -163 0
-160 -59 -60 -75 76 163 0
-162 164 0
-163 164 0
162 163 -164 0
-86 165 0
-88 165 0
86 88 -165 0
164 -166 0
165 -166 0
-164 -165 166 0
164 -167 0
82 -167 0
83 -167 0
-84 -167 0
-85 -167 0
-164 -82 -83 84 85 167 0
164 -168 0
82 -168 0
83 -168 0
84 -168 0
-164 -82 -83 -84 168 0
164 -169 0
82 -169 0
-83 -169 0
-87 -169 0
-164 -82 83 87 169 0
-166 170 0
-167 170 0
-168 170 0
-169 170 0
166 167 168 169 -170 0
170 -171 0
132 -171 0
-170 -132 171 0
144 -172 0
13 -172 0
14 -172 0
29 -172 0
30 -172 0
-144 -13 -14 -29 -30 172 0
-139 173 0
-147 173 0
-152 173 0
-156 173 0
-161 173 0
-171 173 0
-172 173 0
139 147 152 156 161 171 172 -173 0
174 -176 0
175 -176 0
-174 -175 176 0
174 -177 0
-175 -177 0
-174 175 177 0
174 178 0
-176 178 0
-177 178 0
-174 176 177 -178 0
-179 180 0
179 180 0
180 -182 0
181 -182 0
-180 -181 182 0
180 -183 0
-181 -183 0
-180 181 183 0
-182 184 0
-183 184 0
182 183 -184 0
178 -185 0
184 -185 0
-178 -184 185 0
180 -186 0
181 -186 0
-180 -181 186 0
180 -187 0
-181 -187 0
-180 181 187 0
-186 188 0
-187 188 0
186 187 -188 0
180 -189 0
181 -189 0
-180 -181 189 0
180 -190 0
-181 -190 0
-180 181 190 0
-189 191 0
-190 191 0
189 190 -191 0
-188 -135 -192 0
188 135 -192 0
-188 135 192 0
188 -135 192 0
-191 -173 -193 0
191 173 -193 0
-191 173 193 0
191 -173 193 0
-192 -194 0
-193 -194 0
185 -194 0
192 193 -185 194 0
-93 194 0
